&keys
zpe = 1
printmore = .true.
&end

&inputdata
freR = 37.46, 43.21, 57.18, 67.93, 77.47, 88.24, 93.52, 102.33, 111.15, 116.55,
       120.68, 136.96, 149.27, 190.26, 192.58, 199.44, 220.88, 288.21, 304.74, 375.81,
       394.83, 672.11, 676.63, 677.35, 678.81, 898, 898.6, 901.42, 905.87, 908.73,
       911.16, 914.28, 916.49, 1258.04, 1268.12, 1269.66, 1273, 1406.18, 1406.94, 1409.15,
       1413.6, 1414.52, 1417.43, 1419.18, 1432.65, 2939.86, 2947.11, 2949.55, 2952.27, 3009.83,
       3023.73, 3026.85, 3028.72, 3031.95, 3035.74, 3039.95, 3046.1

freX = 42.236778, 48.213667, 62.128306, 69.257367, 71.926581, 84.448761, 92.105733, 102.18239, 108.78677, 113.86494,
       122.48838, 133.88657, 142.96906, 156.0464, 157.42937, 179.06098, 181.39692, 311.64387, 340.09158, 342.94776,
       658.05499, 684.27147, 685.59592, 686.10638, 899.65773, 912.02738, 915.2669, 917.27951, 917.4917, 920.52859,
       922.36851, 923.11211, 1262.2818, 1272.972, 1276.9078, 1278.3502, 1399.0114, 1407.8588, 1410.5674, 1412.0196,
       1422.1582, 1424.7874, 1425.9669, 1434.3757, 2927.7498, 2943.1389, 2948.8441, 2950.044, 2990.363, 3019.2804,
       3024.9521, 3028.8203, 3029.8395, 3034.5783, 3036.3878, 3040.4357

inertR = 2385.7523, 3085.2648, 3945.1921
inertX = 2628.004, 3150.1668, 3632.3953

enR = 0.0
enX = 0.008547697901122

maxn = 6356
Estep = 1
T1 = 300
T2 = 350
&end

&probability
redmass = 7.028010108541263
soc = 268.493309957622614
grad = 3.411179688458513e-02
gradmean = 1.669836399594963e-02
&end
