&keys
zpe = 1
printmore = .true.
&end

&inputdata
freR = 30.5, 32.68, 44.13, 72.26, 75.41, 78.26, 86.71, 90.82, 93.94, 99.25,
       103.12, 106.49, 110.47, 150.26, 155.7, 162.79, 183.89, 267.7, 320.38, 330.3,
       337.46, 685.3, 689.63, 690.34, 692.32, 910.31, 913.49, 913.9, 915.72, 920.39,
       922.03, 924.07, 924.76, 1272.16, 1273.2, 1274.11, 1276.14, 1409.56, 1411.96, 1412.38,
       1413.26, 1427.32, 1428.26, 1430.1, 1431.23, 2944.08, 2947.94, 2948.66, 2950.21, 3017.26,
       3021.3, 3022.12, 3026.44, 3031.73, 3036.22, 3039.05, 3040.19

freX = 28.923855, 34.55668, 49.713827, 54.873452, 64.539352, 85.860717, 91.987693, 93.555774, 94.437162, 101.92192,
       108.96262, 114.17931, 121.28617, 166.19555, 168.51667, 175.18306, 193.49134, 338.90997, 349.7524, 388.2769,
       659.54748, 680.08448, 681.36097, 682.05765, 875.06206, 906.70897, 912.93227, 915.04695, 915.57757, 916.56873,
       917.00475, 921.1768, 1268.0464, 1268.7846, 1271.2725, 1273.4677, 1405.6613, 1407.74, 1408.8014, 1409.7992,
       1416.787, 1424.9424, 1426.2041, 1428.4049, 2927.23, 2945.0448, 2947.028, 2947.7857, 2996.7848, 3023.2494,
       3026.9979, 3027.4059, 3034.8804, 3035.716, 3039.4438, 3040.837

inertR = 2728.1649, 3308.4022, 3557.2704
inertX = 2787.1516, 2968.5727, 3395.3574

enR = 0.0
enX = 0.011477706646019

maxn = 7065
Estep = 1
T1 = 300
T2 = 350
&end

&probability
redmass = 7.511513136874319
soc = 0.000000000000000
grad = 5.994407311596469e-02
gradmean = 2.953200384760722e-02
&end
