&keys
zpe = 1
printmore = .true.
&end

&inputdata
freR = 87.9, 104.67, 108.09, 202.05, 306.7, 321.89, 368.87, 402.29, 446.69, 702.91,
       719.38, 754.59, 801.2, 1191.53, 1406.58, 1441.76, 2301.62, 3043.79, 3176.63, 3229.74,
       3766.25

freX = 81.984596, 107.17457, 111.32601, 122.11168, 239.51037, 287.25068, 300.68569, 339.25846, 374.99543, 432.98905,
       549.93498, 717.78806, 977.55072, 1383.7514, 1407.492, 2162.803, 3035.691, 3136.4128, 3202.7716, 3773.1409

inertR = 228.47655, 833.88307, 1023.9435
inertX = 364.73385, 767.61816, 1119.8275

enR = 0.0
enX = 0.031300516840929

maxn = 10500
Estep = 1
T1 = 300
T2 = 350
&end

&probability
redmass = 1.646669208321533
soc = 340.008055489866251
grad = 2.690231961672289e-02
gradmean = 1.112578694055113e-02
&end
