&keys
zpe = 0
printmore = .true.
&end

&inputdata
freR = 87.91, 104.67, 108.1, 202.07, 306.71, 321.92, 368.9, 402.32, 446.74, 702.96,
       719.43, 754.6, 801.23, 1191.58, 1406.59, 1441.77, 2301.62, 3043.8, 3176.63, 3229.69,
       3766.24

freX = 81.087025, 82.230344, 110.02234, 121.85634, 240.01853, 286.35418, 302.39543, 341.64947, 370.45651, 436.05495,
       551.54741, 719.18079, 975.90723, 1383.6479, 1405.088, 2163.4286, 3035.4452, 3137.7364, 3202.4826, 3772.3661

inertR = 228.46528, 833.83687, 1023.8564
inertX = 363.82347, 768.57859, 1119.8483

enR = 0.0
enX = 0.026331363724674

maxn = 10480
Estep = 1
T1 = 300
T2 = 350
&end

&probability
redmass = 1.647225634648234
soc = 337.831587706063999
grad = 2.665123041332314e-02
gradmean = 1.088654842622516e-02
&end
