&keys
zpe = 0
printmore = .true.
&end

&inputdata
freR = 83.09, 104.6, 144, 185.26, 301.31, 323.58, 339.77, 398.45, 420.48, 650.58,
       702.09, 763.98, 785.8, 1172.24, 1394.09, 1437.83, 2302.29, 3027.68, 3144.95, 3214.56,
       3759.98

freX = 82.020986, 106.92234, 144.73147, 356.49881, 365.27595, 460.48025, 507.17381, 664.5958, 699.53061, 725.46782,
       753.94192, 1165.2283, 1372.9933, 1433.4206, 2119.1135, 2906.4263, 3105.3037, 3187.4082, 3693.0828

inertR = 230.3439, 872.00427, 1082.514
inertX = 330.09824, 646.44653, 843.80649

enR = 0.0
enX = 0.020601556300940

maxn = 9222
Estep = 1
T1 = 300
T2 = 350
&end

&probability
redmass = 4.836898104849865
soc = 406.579911404879908
grad = 5.979625540488113e-02
gradmean = 2.332804795764910e-02
&end
