&keys
zpe = 0
printmore = .true.
&end

&inputdata
freR = 83.05, 104.6, 144.81, 185.28, 301.34, 323.51, 339.71, 398.45, 420.55, 650.72,
       702.14, 763.95, 785.77, 1172.25, 1394.14, 1437.84, 2302.41, 3027.4, 3144.64, 3214.44,
       3759.99

freX = 78.370458, 112.58054, 145.96525, 360.17766, 365.67951, 465.59737, 515.83984, 670.40355, 708.26997, 731.61787,
       761.11534, 1166.5719, 1374.4849, 1434.8914, 2119.1205, 2906.1706, 3104.8918, 3186.8281, 3695.6084

inertR = 230.3483, 871.95375, 1082.4556
inertX = 329.89926, 646.72432, 843.87746

enR = 0.0
enX = 0.020722330447163

maxn = 9249
Estep = 1
T1 = 300
T2 = 350
&end

&probability
redmass = 4.834577187057118
soc = 406.116448399963190
grad = 5.980097095781761e-02
gradmean = 2.321739151885326e-02
&end
