&keys
zpe = 0
printmore = .true.
&end

&inputdata
freR = 34.65, 43.12, 65.94, 76.85, 81.78, 82.75, 97.05, 98.25, 101.85, 115.65,
       176.79, 197.33, 223.75, 227.55, 262.75, 279.37, 369.99, 426.53, 432.15, 454.99,
       461.73, 467.48, 472.69, 481.96, 482.64, 537.2, 541.84, 562.05, 642.71, 644.37,
       653.79, 670.47, 671.3, 697.95, 752.79, 753.38, 773.65, 791.51, 822.79, 888.54,
       900.68, 977.16, 982.45, 1000.07, 1003.22, 1038.13, 1044.3, 1074.68, 1093.7, 1100.52,
       1135.87, 1151.18, 1186, 1197.69, 1290.43, 1297.88, 1318.94, 1347.47, 1350.85, 1471.15,
       1483.95, 1514.85, 1525.55, 1607.28, 1617.94, 1644.96, 1650.98, 2020.21, 2040.71, 2099.26,
       3189.66, 3190.79, 3205.69, 3206.69, 3213.17, 3221.59, 3222.3, 3225.77

freX = 29.166958, 47.654418, 55.807742, 59.386636, 74.03135, 81.668169, 88.636552, 96.224469, 101.32289, 115.10029,
       122.35514, 172.68153, 192.6541, 220.54258, 222.46349, 260.95881, 274.83659, 354.53227, 370.54461, 387.79608,
       422.36631, 433.61287, 446.67735, 449.16973, 464.19888, 466.83092, 524.2434, 565.49242, 588.23563, 653.8212,
       669.354, 673.96488, 749.73507, 753.35725, 771.92731, 791.01185, 819.85877, 887.0646, 898.83058, 973.79775,
       978.92089, 996.9285, 1000.3809, 1028.1531, 1032.792, 1072.6321, 1088.6557, 1096.8194, 1132.9462, 1151.976,
       1186.4055, 1190.8294, 1289.9935, 1296.1539, 1301.975, 1339.0609, 1346.872, 1465.4965, 1481.0227, 1482.8887,
       1509.5362, 1593.254, 1609.1144, 1641.5597, 1645.7046, 1817.9916, 1982.5291, 2115.2139, 3189.6959, 3190.854,
       3205.1217, 3206.3183, 3212.0038, 3220.4091, 3221.5542, 3224.0039

inertR = 5924.5829, 6485.6374, 7978.7524
inertX = 6019.3667, 6902.8422, 8138.3921

enR = 0.0
enX = 0.048958414060125

maxn = 15446
Estep = 1
T1 = 300
T2 = 350
&end

&probability
redmass = 14.167638975424810
soc = 26.468454488314954
grad = 6.760405860679525e-02
gradmean = 1.968082348606688e-02
&end
