&keys
zpe = 0
printmore = .true.
&end

&inputdata
freR = 47.7, 59.85, 69.6, 74.3, 87.74, 92.11, 100.32, 114.09, 120.2, 126.64,
       127.93, 150.81, 161.64, 176.02, 188.68, 206.15, 213.44, 347.57, 411.48, 428.24,
       472, 671.15, 672.05, 674.67, 678.37, 885.97, 894.96, 897.84, 901.74, 903.94,
       904.72, 913.14, 920.8, 1270.65, 1275.1, 1276.11, 1278.78, 1397.53, 1398.46, 1400.07,
       1401.63, 1407.14, 1413.8, 1415.75, 1418.55, 2963.35, 2966.48, 2972.79, 2975.5, 3048.76,
       3052.6, 3057.6, 3057.97, 3063.08, 3064.45, 3074.01, 3074.82

freX = 45.959789, 59.497404, 73.10564, 81.201117, 90.288554, 106.5175, 106.95414, 110.55378, 113.91551, 121.67963,
       129.40473, 144.50415, 177.77338, 187.55854, 193.79761, 273.43637, 372.9714, 415.30517, 475.57909, 663.58843,
       676.56523, 680.57695, 691.3951, 839.07621, 889.96845, 906.39038, 910.32968, 915.11958, 917.9052, 919.87628,
       977.79848, 1277.0883, 1280.8823, 1281.9076, 1285.2385, 1376.2411, 1401.0133, 1403.9839, 1404.2457, 1408.5599,
       1414.4321, 1416.7495, 1420.8303, 2917.994, 2972.7912, 2973.3874, 2977.1223, 3056.8465, 3059.3779, 3060.2974,
       3063.5371, 3066.1156, 3066.7787, 3069.6588, 3074.3977

inertR = 2461.4502, 3032.1188, 3128.2315
inertX = 2546.518, 2990.6944, 3421.4087

enR = 0.0
enX = 0.005373743536162

maxn = 5880
Estep = 1
T1 = 300
T2 = 350
&end

&probability
redmass = 5.913547437375130
soc = 0.000000000000000
grad = 4.675508620322617e-02
gradmean = 2.170150819235818e-02
&end
