&keys
zpe = 1
printmore = .true.
&end

&inputdata
freR = 47.7, 59.85, 69.6, 74.3, 87.74, 92.11, 100.32, 114.09, 120.2, 126.64,
       127.93, 150.81, 161.64, 176.02, 188.68, 206.15, 213.44, 347.57, 411.48, 428.24,
       472, 671.15, 672.05, 674.67, 678.37, 885.97, 894.96, 897.84, 901.74, 903.94,
       904.72, 913.14, 920.8, 1270.65, 1275.1, 1276.11, 1278.78, 1397.53, 1398.46, 1400.07,
       1401.63, 1407.14, 1413.8, 1415.75, 1418.55, 2963.35, 2966.48, 2972.79, 2975.5, 3048.76,
       3052.6, 3057.6, 3057.97, 3063.08, 3064.45, 3074.01, 3074.82

freX = 37.54568, 59.347397, 61.248012, 69.814696, 78.703174, 84.479839, 95.419123, 99.672506, 103.15659, 113.14355,
       117.92276, 123.21801, 141.66269, 156.02128, 185.60873, 196.80603, 197.5623, 362.08459, 407.48291, 434.39523,
       672.79675, 680.51619, 681.6352, 683.06042, 862.70921, 900.83847, 904.3716, 907.29299, 908.93688, 912.79406,
       916.61932, 919.39768, 1275.6729, 1280.3134, 1281.6898, 1282.5145, 1367.805, 1400.3352, 1403.9421, 1404.6287,
       1408.5103, 1414.0755, 1416.2788, 1418.399, 2933.0081, 2971.542, 2972.5338, 2978.1457, 3053.0192, 3058.3794,
       3059.2639, 3061.442, 3065.3678, 3066.4551, 3067.8209, 3074.4325

inertR = 2461.4502, 3032.1188, 3128.2315
inertX = 2577.3724, 3009.3825, 3323.746

enR = 0.0
enX = 0.007227298438920

maxn = 5972
Estep = 1
T1 = 300
T2 = 350
&end

&probability
redmass = 6.223235655823698
soc = 0.000000000000000
grad = 4.765266237660490e-02
gradmean = 2.341818867929078e-02
&end
