&keys
zpe = 1
printmore = .true.
&end

&inputdata
freR = 30.41, 32.65, 44.1, 72.26, 75.36, 78.24, 86.68, 90.61, 93.76, 99.15,
       103.02, 106.48, 110.44, 150.26, 155.69, 162.76, 183.88, 267.69, 320.37, 330.29,
       337.44, 685.3, 689.64, 690.35, 692.35, 910.32, 913.47, 913.88, 915.72, 920.39,
       922.01, 924.05, 924.75, 1272.17, 1273.19, 1274.11, 1276.13, 1409.57, 1411.96, 1412.37,
       1413.26, 1427.31, 1428.26, 1430.09, 1431.22, 2944.11, 2947.99, 2948.7, 2950.21, 3017.29,
       3021.29, 3022.19, 3026.43, 3031.78, 3036.24, 3039.2, 3040.18

freX = 33.187407, 45.266916, 48.381084, 62.209969, 83.951217, 86.893518, 90.02396, 92.664747, 98.141416, 100.19452,
       104.47669, 112.59944, 165.06591, 166.63743, 171.74892, 192.04461, 338.90941, 347.90222, 387.96667, 659.243,
       679.98248, 681.15044, 681.40572, 873.12463, 904.55123, 910.86697, 913.22896, 913.89126, 914.68994, 916.29099,
       919.5851, 1267.6484, 1268.0925, 1270.7767, 1273.0111, 1405.2406, 1407.1587, 1408.1483, 1409.2342, 1416.0848,
       1424.1943, 1425.499, 1427.7387, 2926.8352, 2944.7403, 2946.4112, 2946.9154, 2996.1481, 3022.4004, 3026.1,
       3026.6794, 3034.2212, 3034.9996, 3038.6298, 3039.8086

inertR = 2728.1649, 3308.4022, 3557.2704
inertX = 2783.9293, 2972.824, 3394.783

enR = 0.0
enX = 0.011493074776808

maxn = 7005
Estep = 1
T1 = 300
T2 = 350
&end

&probability
redmass = 7.480246846217944
soc = 0.000000000000000
grad = 5.998554405591925e-02
gradmean = 2.955662202601477e-02
&end
