&keys
zpe = 1
printmore = .true.
&end

&inputdata
freR = 10.15, 30.39, 36.88, 53.28, 57.84, 66.61, 74.1, 84.51, 95.92, 104.63,
       105.33, 113.11, 133.32, 145.01, 150.93, 168.89, 178.37, 224.3, 250.18, 263.3,
       270.3, 668.12, 669.38, 674.07, 675.96, 898.59, 899.91, 903.8, 905.68, 908.04,
       910.8, 913.16, 913.65, 1249.84, 1253.34, 1253.73, 1260.07, 1401.35, 1402.82, 1405.84,
       1408.74, 1421.13, 1426.56, 1428.72, 1432.62, 2888.26, 2889.6, 2891.2, 2894.32, 2950.82,
       2954.45, 2965.68, 2967.97, 2979.23, 2989.14, 2990.8, 2995.17

freX = 33.341177, 36.55309, 75.742877, 84.610281, 96.364252, 99.136566, 104.55916, 109.48134, 111.15972, 118.02841,
       149.02941, 169.93046, 187.10736, 199.78042, 208.38651, 233.20693, 254.46058, 344.20979, 465.17713, 618.36214,
       635.52911, 650.09552, 666.55282, 784.62024, 862.5026, 888.83032, 892.12896, 895.81933, 896.4641, 901.47617,
       1128.8633, 1220.8045, 1231.4943, 1241.5006, 1249.0083, 1391.0376, 1397.1821, 1397.5292, 1403.2963, 1411.8639,
       1413.8287, 1424.429, 1974.3858, 2780.5588, 2848.5461, 2876.5013, 2879.7427, 2933.3123, 2944.5759, 2950.6174,
       2959.9417, 2973.4743, 2983.5425, 2984.3998, 3212.9912

inertR = 2851.444, 3252.8063, 3792.823
inertX = 2441.8808, 2997.6938, 4226.0222

enR = 0.0
enX = 0.031322687887950

maxn = 11938
Estep = 1
T1 = 300
T2 = 350
&end

&probability
redmass = 4.565016792437883
soc = 0.000000000000000
grad = 5.831193443711222e-02
gradmean = 2.295165459582623e-02
&end
