&keys
zpe = 0
printmore = .true.
&end

&inputdata
freR = 65.67, 68.73, 68.74, 89.19, 89.2, 95.82, 106.25, 109.45, 109.45, 221.02,
       363.64, 382.57, 390.11, 412.81, 412.81, 426.42, 426.42, 471.56, 508.82, 557.39,
       561.62, 561.62, 660.47, 660.47, 663.45, 2086.77, 2128.95, 2128.95, 2146, 2200.24

freX = 30.816161, 52.234826, 56.275155, 60.888174, 63.975512, 68.289358, 90.381844, 91.930913, 92.312277, 118.86275,
       164.15293, 165.21233, 194.15401, 210.45131, 317.40513, 348.91476, 381.08883, 383.54393, 406.59288, 425.49397,
       522.07794, 567.79517, 571.25182, 1668.2966, 2076.3881, 2141.5356, 2190.5914, 2193.52

inertR = 2671.6232, 3519.6262, 3519.6262
inertX = 3247.7172, 3532.0163, 4074.7047

enR = 0.0
enX = 0.059705439122209

maxn = 17804
Estep = 1
T1 = 300
T2 = 350
&end

&probability
redmass = 13.686936122000418
soc = 167.096403462193052
grad = 6.520527341179921e-02
gradmean = 2.295494758897843e-02
&end
