&keys
zpe = 0
printmore = .true.
&end

&inputdata
freR = 65.67, 68.73, 68.73, 89.19, 89.19, 95.82, 106.25, 109.45, 109.45, 221.02,
       363.64, 382.57, 390.11, 412.81, 412.81, 426.42, 426.42, 471.56, 508.82, 557.39,
       561.62, 561.62, 660.47, 660.47, 663.45, 2086.77, 2128.95, 2128.95, 2146, 2200.24

freX = 29.644537, 36.658016, 56.388996, 60.347469, 65.108494, 68.272294, 90.848389, 91.986596, 93.131211, 120.02959,
       166.99377, 170.42849, 199.52141, 210.61844, 317.78793, 348.61708, 381.85774, 383.6982, 395.77265, 426.8745,
       520.70885, 567.79939, 571.42335, 1668.7034, 2076.7865, 2141.7041, 2190.9245, 2193.7825

inertR = 2671.6232, 3519.6262, 3519.6262
inertX = 3247.7172, 3532.0163, 4074.4289

enR = 0.0
enX = 0.059687305270143

maxn = 17800
Estep = 1
T1 = 300
T2 = 350
&end

&probability
redmass = 13.687802016986774
soc = 167.123273519878154
grad = 6.522215371869877e-02
gradmean = 2.295329931459499e-02
&end
