&keys
zpe = 0
printmore = .true.
&end

&inputdata
freR = 37.46, 43.21, 57.18, 67.93, 77.47, 88.24, 93.52, 102.33, 111.15, 116.55,
       120.68, 136.96, 149.27, 190.26, 192.58, 199.44, 220.88, 288.21, 304.74, 375.81,
       394.83, 672.11, 676.63, 677.35, 678.81, 898, 898.6, 901.42, 905.87, 908.73,
       911.16, 914.28, 916.49, 1258.04, 1268.12, 1269.66, 1273, 1406.18, 1406.94, 1409.15,
       1413.6, 1414.52, 1417.43, 1419.18, 1432.65, 2939.86, 2947.11, 2949.55, 2952.27, 3009.83,
       3023.73, 3026.85, 3028.72, 3031.95, 3035.74, 3039.95, 3046.1

freX = 37.977094, 44.922942, 60.891486, 67.117027, 71.266592, 84.898897, 89.994794, 97.078727, 102.31344, 106.72925,
       116.25872, 129.56755, 134.24277, 155.98397, 156.22901, 178.22881, 180.73971, 312.00433, 340.76822, 343.20805,
       657.99036, 684.1493, 685.55867, 685.96278, 898.18765, 910.59005, 913.82534, 915.81571, 916.42808, 918.87895,
       920.7372, 921.6197, 1262.1208, 1272.6279, 1276.6398, 1277.9336, 1398.4537, 1407.3616, 1410.1379, 1411.4684,
       1421.4431, 1424.3718, 1425.2539, 1433.7073, 2927.4689, 2941.5211, 2948.5291, 2949.8329, 2989.6503, 3018.1524,
       3024.1651, 3027.9981, 3029.4025, 3033.9503, 3035.7738, 3039.7396

inertR = 2385.7523, 3085.2648, 3945.1921
inertX = 2628.1187, 3150.4965, 3631.7379

enR = 0.0
enX = 0.007365780698669

maxn = 6317
Estep = 1
T1 = 300
T2 = 350
&end

&probability
redmass = 7.030330194859228
soc = 268.081976895128093
grad = 3.412465442745317e-02
gradmean = 1.671162069694687e-02
&end
