&keys
zpe = 1
printmore = .true.
&end

&inputdata
freR = 3.42, 22.01, 36.8, 45.34, 70.06, 76.64, 82.64, 89.36, 91.93, 108.46,
       109.95, 117.09, 127.63, 132.68, 139.58, 143.36, 153.33, 169.22, 191.49, 198.37,
       209.93, 221.83, 229.44, 249.81, 256.82, 272.56, 281.67, 313.73, 330.44, 334.25,
       380.2, 409.25, 413.4, 424.16, 456.11, 489, 567.69, 568.93, 648.72, 672.26,
       677.09, 682.41, 685.32, 909.67, 914.22, 918.79, 919.65, 923.5, 926.57, 936.2,
       942, 1251.66, 1256.99, 1260.15, 1261.44, 1391.2, 1395.37, 1401.87, 1402.91, 1422.84,
       1425.8, 1428.55, 1440.58, 1904.09, 2070.19, 2080.65, 2920.56, 2922.06, 2925.9, 2948.56,
       2988.28, 3000.17, 3008.68, 3010.76, 3014.94, 3032.46, 3053.97, 3067.74

freX = 28.681621, 39.070359, 54.388344, 56.669445, 63.714622, 68.791393, 81.201082, 82.471601, 92.358694, 97.559081,
       103.58016, 112.16445, 112.92851, 116.67065, 126.53222, 129.39398, 134.42871, 143.03572, 158.31755, 160.8351,
       183.36832, 202.29362, 218.83053, 227.70909, 240.62972, 253.18724, 279.20461, 299.83094, 308.53188, 374.68596,
       397.1376, 410.21403, 419.74502, 451.4533, 480.68279, 548.0487, 557.07086, 636.38924, 663.12827, 673.67714,
       679.17216, 681.65051, 812.40871, 906.66236, 912.76519, 917.31007, 917.89853, 921.32175, 926.75291, 934.93472,
       1257.1596, 1264.217, 1266.151, 1268.1924, 1391.4377, 1397.8382, 1401.5397, 1408.8698, 1411.1689, 1421.5543,
       1425.9278, 1428.007, 1899.7666, 2070.8967, 2081.0556, 2897.9817, 2923.5847, 2948.1632, 2962.242, 2982.8687,
       2987.0261, 3001.8623, 3012.6338, 3036.2952, 3041.9128, 3059.419, 3078.426

inertR = 4177.9226, 7949.2522, 9722.1716
inertX = 4497.5485, 7857.9411, 9288.6417

enR = 0.0
enX = 0.024034013243181

maxn = 9557
Estep = 1
T1 = 300
T2 = 350
&end

&probability
redmass = 4.460367155075615
soc = 90.979263274660553
grad = 3.869426932321125e-02
gradmean = 1.400788704798994e-02
&end
