&keys
zpe = 1
printmore = .true.
&end

&inputdata
freR = 2.73, 22.1, 36.8, 45.32, 70.26, 76.66, 82.66, 90.02, 92.1, 108.41,
       109.82, 117.2, 127.7, 132.6, 139.51, 143.37, 153.17, 169.09, 191.4, 198.11,
       209.85, 221.68, 229.43, 249.76, 256.82, 272.53, 281.7, 313.72, 330.54, 334.21,
       380.18, 409.24, 413.32, 424.08, 456.06, 488.99, 567.68, 568.9, 648.71, 672.37,
       677.14, 682.39, 685.45, 909.71, 914.15, 918.82, 919.68, 923.51, 926.55, 936.22,
       942.04, 1251.68, 1257, 1260.21, 1261.44, 1391.2, 1395.41, 1401.82, 1402.9, 1422.73,
       1425.76, 1428.49, 1440.6, 1904.08, 2070.2, 2080.65, 2920.74, 2922.03, 2925.74, 2948.68,
       2988.49, 3000, 3008.78, 3010.6, 3014.59, 3032.55, 3053.98, 3067.72

freX = 28.863389, 37.291295, 52.461781, 54.849549, 62.320586, 68.791268, 80.77161, 81.995616, 87.51984, 94.383412,
       101.56957, 108.00435, 110.48499, 112.04619, 121.12445, 127.48135, 131.58453, 134.87279, 157.28372, 159.03315,
       182.49211, 201.8652, 218.28085, 227.65713, 240.45479, 253.44808, 280.22861, 300.03837, 308.09205, 373.88325,
       395.98704, 409.75533, 419.65357, 451.16578, 480.32757, 547.97637, 557.19001, 636.49685, 663.19602, 673.67243,
       679.21752, 682.11812, 810.83699, 904.7745, 910.48445, 915.11291, 915.83086, 919.17062, 925.32874, 933.14149,
       1256.5393, 1263.6856, 1265.7261, 1267.6759, 1390.8902, 1397.6393, 1401.4566, 1408.0813, 1410.6954, 1420.7525,
       1425.2467, 1427.5434, 1899.7596, 2070.6914, 2080.8691, 2899.63, 2924.5679, 2949.1523, 2962.2225, 2984.4165,
       2987.1202, 3002.4748, 3014.2516, 3036.7892, 3041.7018, 3059.927, 3078.0788

inertR = 4179.0827, 7947.1534, 9717.4635
inertX = 4497.2125, 7861.0194, 9288.6417

enR = 0.0
enX = 0.024025179654018

maxn = 9521
Estep = 1
T1 = 300
T2 = 350
&end

&probability
redmass = 4.462729220855198
soc = 91.061857196084034
grad = 3.868039147329792e-02
gradmean = 1.389313380798032e-02
&end
