&keys
zpe = 0
printmore = .true.
&end

&inputdata
freR = 34.75, 50.41, 54.64, 61.23, 82.81, 90.38, 97.29, 98.45, 112.01, 112.39,
       119.3, 125.34, 131.93, 175.58, 189.29, 192.22, 203.7, 331.66, 388.91, 395.51,
       465.61, 677.27, 677.9, 681.26, 682.26, 895.08, 902.2, 905.17, 907.84, 909.27,
       912.81, 914.27, 916.96, 1276.03, 1277.7, 1279.7, 1282.21, 1400.45, 1401.48, 1401.93,
       1402.59, 1408.46, 1414.08, 1415.97, 1417.92, 2973.07, 2973.55, 2973.79, 2974.75, 3060.86,
       3061.12, 3062.45, 3062.75, 3063.34, 3070.64, 3070.9, 3073.82

freX = 41.818927, 46.332044, 63.179623, 72.13632, 76.189442, 82.174908, 94.204109, 105.51843, 106.34724, 110.74559,
       119.20847, 130.85129, 141.16697, 179.34483, 191.77707, 194.28375, 225.82903, 333.26949, 401.07447, 421.21696,
       669.97706, 680.49786, 684.19429, 686.2952, 780.43278, 903.48545, 905.10062, 910.0006, 915.80987, 916.79151,
       919.50063, 920.5612, 1277.7285, 1279.9363, 1283.1488, 1288.0246, 1364.4724, 1401.8556, 1403.2962, 1404.3282,
       1409.5402, 1413.6994, 1414.1255, 1422.5677, 2928.0835, 2972.5262, 2974.9609, 2976.6362, 3039.0413, 3058.3356,
       3061.6669, 3062.6656, 3065.0422, 3067.6108, 3071.3022, 3074.3397

inertR = 2687.486, 2807.9522, 3219.5789
inertX = 2492.9471, 3018.2846, 3570.3509

enR = 0.0
enX = 0.011156240937545

maxn = 7149
Estep = 1
T1 = 300
T2 = 350
&end

&probability
redmass = 3.676350264201546
soc = 202.694540915634917
grad = 3.428703568485043e-02
gradmean = 1.435319052788623e-02
&end
