&keys
zpe = 0
printmore = .true.
&end

&inputdata
freR = 10.17, 30.39, 36.88, 53.28, 57.84, 66.62, 74.1, 84.51, 95.92, 104.62,
       105.32, 113.1, 133.31, 145.01, 150.93, 168.89, 178.37, 224.31, 250.18, 263.3,
       270.3, 668.12, 669.38, 674.07, 675.96, 898.59, 899.91, 903.8, 905.68, 908.04,
       910.8, 913.16, 913.65, 1249.84, 1253.34, 1253.73, 1260.07, 1401.35, 1402.82, 1405.84,
       1408.74, 1421.13, 1426.56, 1428.72, 1432.62, 2888.26, 2889.6, 2891.2, 2894.32, 2950.82,
       2954.46, 2965.68, 2967.97, 2979.23, 2989.14, 2990.81, 2995.17

freX = 31.70928, 56.478656, 85.006847, 89.061805, 100.105, 104.50243, 105.68339, 115.78594, 117.54642, 123.09052,
       134.56667, 164.89572, 185.33423, 194.70699, 200.15613, 214.61937, 254.21154, 337.67537, 347.1646, 620.57746,
       645.074, 658.68499, 667.35786, 860.50726, 884.64867, 891.93248, 896.60383, 898.35759, 903.0973, 904.86163,
       905.59921, 1225.2762, 1233.1481, 1241.9996, 1244.3344, 1397.632, 1398.1555, 1398.7355, 1400.5621, 1412.5169,
       1417.0728, 1417.9238, 1429.1847, 2824.3178, 2876.609, 2879.1362, 2887.932, 2944.0557, 2944.956, 2949.1628,
       2957.8572, 2965.5811, 2981.1532, 2985.7457, 2990.9249

inertR = 2851.444, 3252.8063, 3792.823
inertX = 2441.8808, 2997.6938, 4226.0222

enR = 0.0
enX = 0.030966488203802

maxn = 11497
Estep = 1
T1 = 300
T2 = 350
&end

&probability
redmass = 4.565017526421649
soc = 0.000000000000000
grad = 5.831193210368150e-02
gradmean = 2.295165490692476e-02
&end
