&keys
zpe = 1
printmore = .true.
&end

&inputdata
freR = 34.75, 50.41, 54.64, 61.23, 82.81, 90.38, 97.29, 98.45, 112.01, 112.39,
       119.3, 125.34, 131.93, 175.58, 189.29, 192.22, 203.7, 331.66, 388.91, 395.51,
       465.61, 677.27, 677.9, 681.26, 682.26, 895.08, 902.2, 905.17, 907.84, 909.27,
       912.81, 914.27, 916.96, 1276.03, 1277.7, 1279.7, 1282.21, 1400.45, 1401.48, 1401.93,
       1402.59, 1408.46, 1414.08, 1415.97, 1417.92, 2973.07, 2973.55, 2973.79, 2974.75, 3060.86,
       3061.12, 3062.45, 3062.75, 3063.34, 3070.64, 3070.9, 3073.82

freX = 45.82197, 51.012282, 63.567551, 75.544701, 79.06545, 86.20622, 101.62501, 108.59127, 110.75526, 112.3627,
       122.64081, 133.88522, 140.98979, 180.11295, 191.25288, 196.84728, 227.94388, 333.29925, 400.78251, 421.17176,
       670.23281, 680.76965, 684.46389, 686.28666, 781.70501, 905.64422, 907.76316, 912.17456, 917.5484, 918.92988,
       922.08468, 922.52324, 1278.1049, 1280.214, 1283.4103, 1288.2855, 1365.1246, 1402.5224, 1403.9797, 1405.0222,
       1410.1677, 1414.0776, 1414.7414, 1423.2168, 2928.2631, 2972.7356, 2975.1709, 2976.8605, 3039.4888, 3058.6771,
       3062.2904, 3062.9842, 3065.4345, 3068.2047, 3071.5902, 3074.745

inertR = 2687.486, 2807.9522, 3219.5789
inertX = 2492.9471, 3018.2846, 3570.1392

enR = 0.0
enX = 0.012411984132086

maxn = 7186
Estep = 1
T1 = 300
T2 = 350
&end

&probability
redmass = 3.676687788273484
soc = 202.618588794315713
grad = 3.428839457827990e-02
gradmean = 1.435395196121976e-02
&end
