&keys
zpe = 0
printmore = .true.
&end

&inputdata
freR = 34.65, 43.12, 65.94, 76.85, 81.78, 82.75, 97.06, 98.25, 101.85, 115.65,
       176.79, 197.32, 223.76, 227.55, 262.75, 279.37, 369.99, 426.53, 432.15, 454.99,
       461.73, 467.48, 472.69, 481.96, 482.65, 537.2, 541.84, 562.05, 642.71, 644.37,
       653.79, 670.47, 671.3, 697.95, 752.79, 753.38, 773.65, 791.51, 822.79, 888.54,
       900.68, 977.16, 982.45, 1000.07, 1003.22, 1038.13, 1044.3, 1074.68, 1093.7, 1100.52,
       1135.87, 1151.18, 1186, 1197.69, 1290.43, 1297.88, 1318.94, 1347.47, 1350.85, 1471.15,
       1483.95, 1514.85, 1525.55, 1607.28, 1617.94, 1644.96, 1650.98, 2020.2, 2040.71, 2099.25,
       3189.66, 3190.79, 3205.69, 3206.69, 3213.16, 3221.59, 3222.3, 3225.77

freX = 34.211098, 43.6814, 56.732184, 59.617845, 72.931035, 84.665773, 89.052513, 96.916684, 109.22046, 117.01464,
       161.5928, 180.76663, 193.01896, 217.3288, 223.87244, 259.68138, 272.14334, 356.5431, 368.63605, 412.15999,
       420.98631, 429.99743, 444.02768, 452.99138, 465.18207, 468.26255, 523.7022, 563.17641, 582.15015, 655.36811,
       669.60367, 675.22698, 749.7953, 751.87711, 770.72687, 790.95198, 819.84516, 887.29395, 899.02628, 974.46276,
       979.39178, 997.23058, 1000.8561, 1033.354, 1037.2577, 1072.9532, 1089.3259, 1097.8269, 1133.4661, 1151.7255,
       1185.8677, 1193.493, 1295.0208, 1295.5614, 1306.4034, 1337.6674, 1347.5379, 1467.7924, 1482.3093, 1486.3277,
       1511.0121, 1592.4279, 1610.7033, 1639.1993, 1645.2736, 1672.3047, 1990.8791, 2094.8031, 3189.7092, 3190.9946,
       3205.1282, 3206.9807, 3211.9217, 3219.2826, 3221.1083, 3224.1468

inertR = 5924.5829, 6485.6374, 7978.7524
inertX = 6099.8771, 6804.5311, 8067.5002

enR = 0.0
enX = 0.048588154145217

maxn = 15364
Estep = 1
T1 = 300
T2 = 350
&end

&probability
redmass = 13.656678821689706
soc = 28.923280830500541
grad = 6.742584492697599e-02
gradmean = 9.433730213627190e-03
&end
