&keys
zpe = 1
printmore = .true.
&end

&inputdata
freR = 10.17, 30.39, 36.88, 53.28, 57.84, 66.62, 74.1, 84.51, 95.92, 104.62,
       105.32, 113.1, 133.31, 145.01, 150.93, 168.89, 178.37, 224.31, 250.18, 263.3,
       270.3, 668.12, 669.38, 674.07, 675.96, 898.59, 899.91, 903.8, 905.68, 908.04,
       910.8, 913.16, 913.65, 1249.84, 1253.34, 1253.73, 1260.07, 1401.35, 1402.82, 1405.84,
       1408.74, 1421.13, 1426.56, 1428.72, 1432.62, 2888.26, 2889.6, 2891.2, 2894.32, 2950.82,
       2954.46, 2965.68, 2967.97, 2979.23, 2989.14, 2990.81, 2995.17

freX = 40.56135, 44.405838, 63.282435, 78.641658, 87.019352, 94.609412, 100.82648, 106.92947, 116.7088, 125.6467,
       130.35823, 136.57537, 156.14563, 176.02037, 187.09814, 191.72935, 209.43291, 245.95187, 300.18297, 317.35693,
       622.77334, 652.71834, 659.97883, 666.42652, 832.05181, 892.71503, 895.93877, 898.68601, 904.38587, 905.58587,
       906.89422, 909.09024, 1238.8849, 1242.522, 1244.9094, 1252.7592, 1395.9724, 1400.621, 1403.0474, 1406.6423,
       1417.3119, 1420.1073, 1423.9592, 1431.4209, 2820.0151, 2879.1273, 2880.2817, 2890.0242, 2919.2701, 2946.6881,
       2950.1547, 2955.4691, 2956.5988, 2981.055, 2987.3448, 2990.8532

inertR = 2851.444, 3252.8063, 3792.823
inertX = 2570.549, 3140.4709, 4128.9223

enR = 0.0
enX = 0.017087240782985

maxn = 8367
Estep = 1
T1 = 300
T2 = 350
&end

&probability
redmass = 3.966538711844965
soc = 113.600889776444973
grad = 3.865711847688847e-02
gradmean = 1.502790637951034e-02
&end
