&keys
zpe = 1
printmore = .true.
&end

&inputdata
freR = 10.15, 30.39, 36.88, 53.28, 57.84, 66.61, 74.1, 84.51, 95.92, 104.63,
       105.33, 113.11, 133.32, 145.01, 150.93, 168.89, 178.37, 224.3, 250.18, 263.3,
       270.3, 668.12, 669.38, 674.07, 675.96, 898.59, 899.91, 903.8, 905.68, 908.04,
       910.8, 913.16, 913.65, 1249.84, 1253.34, 1253.73, 1260.07, 1401.35, 1402.82, 1405.84,
       1408.74, 1421.13, 1426.56, 1428.72, 1432.62, 2888.26, 2889.6, 2891.2, 2894.32, 2950.82,
       2954.45, 2965.68, 2967.97, 2979.23, 2989.14, 2990.8, 2995.17

freX = 33.864879, 40.192931, 57.785168, 76.786376, 81.456939, 89.445328, 96.123842, 103.93619, 110.46651, 117.49615,
       126.03767, 127.83295, 148.51764, 173.47684, 186.69101, 191.3513, 207.8372, 245.0184, 298.84422, 316.88851,
       622.31686, 651.92637, 660.0931, 666.33842, 830.80096, 890.57183, 894.60639, 897.50646, 902.63378, 903.75203,
       905.32497, 907.35128, 1238.2366, 1241.8034, 1244.6362, 1251.873, 1395.2163, 1399.6133, 1402.1185, 1405.6173,
       1416.5433, 1419.2462, 1423.2272, 1430.9093, 2819.2452, 2878.4018, 2879.5729, 2889.1048, 2918.0471, 2945.541,
       2948.6171, 2954.0897, 2955.2268, 2979.8813, 2986.3877, 2989.5

inertR = 2851.444, 3252.8063, 3792.823
inertX = 2570.549, 3140.4709, 4128.9223

enR = 0.0
enX = 0.017087172484935

maxn = 8309
Estep = 1
T1 = 300
T2 = 350
&end

&probability
redmass = 3.966543067107533
soc = 113.600889776444973
grad = 3.865716073431909e-02
gradmean = 1.502753216066975e-02
&end
